35
1 0 5
2 0 1
2 1 4
3 0 5
3 1 4
3 2 3
4 0 4
4 1 5
4 2 3
4 3 4
5 0 2
5 1 5
5 2 3
5 3 1
5 4 5
6 0 2
6 1 1
6 2 4
6 3 4
6 4 1
6 5 4
7 0 4
7 1 4
7 2 5
7 3 5
7 4 1
7 5 1
7 6 5
8 0 4
8 1 5
8 2 1
8 3 3
8 4 5
8 5 3
8 6 3
8 7 2
9 0 3
9 1 5
9 2 1
9 3 2
9 4 2
9 5 4
9 6 5
9 7 5
9 8 5
10 0 2
10 1 3
10 2 4
10 3 4
10 4 2
10 5 1
10 6 1
10 7 2
10 8 4
10 9 2
11 0 1
11 1 3
11 2 3
11 3 5
11 4 2
11 5 5
11 6 3
11 7 2
11 8 3
11 9 2
11 10 3
12 0 5
12 1 2
12 2 2
12 3 3
12 4 1
12 5 1
12 6 1
12 7 5
12 8 3
12 9 1
12 10 2
12 11 1
13 0 4
13 1 4
13 2 3
13 3 3
13 4 1
13 5 5
13 6 3
13 7 5
13 8 5
13 9 2
13 10 4
13 11 4
13 12 3
14 0 5
14 1 4
14 2 3
14 3 2
14 4 3
14 5 4
14 6 5
14 7 1
14 8 3
14 9 1
14 10 3
14 11 1
14 12 4
14 13 5
15 0 5
15 1 5
15 2 3
15 3 5
15 4 2
15 5 2
15 6 5
15 7 2
15 8 3
15 9 2
15 10 3
15 11 5
15 12 1
15 13 5
15 14 2
16 0 3
16 1 2
16 2 5
16 3 2
16 4 5
16 5 1
16 6 5
16 7 1
16 8 1
16 9 4
16 10 5
16 11 5
16 12 1
16 13 4
16 14 4
16 15 2
17 0 5
17 1 4
17 2 2
17 3 4
17 4 3
17 5 4
17 6 3
17 7 2
17 8 2
17 9 3
17 10 1
17 11 1
17 12 4
17 13 2
17 14 5
17 15 5
17 16 2
18 0 1
18 1 3
18 2 5
18 3 1
18 4 1
18 5 5
18 6 4
18 7 2
18 8 4
18 9 2
18 10 1
18 11 2
18 12 5
18 13 2
18 14 2
18 15 1
18 16 2
18 17 4
19 0 3
19 1 1
19 2 1
19 3 1
19 4 5
19 5 2
19 6 2
19 7 3
19 8 1
19 9 4
19 10 5
19 11 3
19 12 3
19 13 2
19 14 5
19 15 4
19 16 4
19 17 3
19 18 3
20 0 1
20 1 3
20 2 1
20 3 4
20 4 1
20 5 1
20 6 5
20 7 2
20 8 1
20 9 2
20 10 1
20 11 2
20 12 5
20 13 1
20 14 1
20 15 3
20 16 5
20 17 3
20 18 5
20 19 5
21 0 3
21 1 2
21 2 4
21 3 4
21 4 3
21 5 2
21 6 5
21 7 1
21 8 2
21 9 2
21 10 5
21 11 1
21 12 2
21 13 2
21 14 2
21 15 4
21 16 4
21 17 3
21 18 3
21 19 3
21 20 4
22 0 2
22 1 3
22 2 3
22 3 4
22 4 1
22 5 2
22 6 3
22 7 4
22 8 1
22 9 2
22 10 2
22 11 2
22 12 5
22 13 1
22 14 2
22 15 1
22 16 1
22 17 5
22 18 1
22 19 4
22 20 4
22 21 5
23 0 3
23 1 5
23 2 2
23 3 4
23 4 2
23 5 4
23 6 1
23 7 4
23 8 3
23 9 5
23 10 3
23 11 4
23 12 3
23 13 1
23 14 4
23 15 4
23 16 3
23 17 2
23 18 4
23 19 2
23 20 4
23 21 1
23 22 4
24 0 3
24 1 5
24 2 1
24 3 5
24 4 1
24 5 5
24 6 4
24 7 1
24 8 5
24 9 5
24 10 3
24 11 4
24 12 5
24 13 2
24 14 2
24 15 1
24 16 1
24 17 1
24 18 5
24 19 3
24 20 5
24 21 5
24 22 3
24 23 5
25 0 4
25 1 4
25 2 4
25 3 2
25 4 3
25 5 1
25 6 4
25 7 3
25 8 4
25 9 5
25 10 1
25 11 2
25 12 5
25 13 3
25 14 3
25 15 4
25 16 4
25 17 5
25 18 3
25 19 4
25 20 3
25 21 2
25 22 3
25 23 4
25 24 5
26 0 2
26 1 5
26 2 3
26 3 5
26 4 4
26 5 3
26 6 1
26 7 1
26 8 5
26 9 1
26 10 4
26 11 5
26 12 4
26 13 3
26 14 5
26 15 5
26 16 4
26 17 3
26 18 1
26 19 5
26 20 3
26 21 2
26 22 2
26 23 4
26 24 2
26 25 5
27 0 2
27 1 3
27 2 1
27 3 5
27 4 3
27 5 1
27 6 3
27 7 4
27 8 1
27 9 1
27 10 1
27 11 3
27 12 1
27 13 1
27 14 1
27 15 3
27 16 1
27 17 4
27 18 4
27 19 3
27 20 3
27 21 2
27 22 1
27 23 5
27 24 2
27 25 4
27 26 5
28 0 3
28 1 4
28 2 3
28 3 1
28 4 1
28 5 1
28 6 1
28 7 5
28 8 4
28 9 4
28 10 5
28 11 5
28 12 2
28 13 5
28 14 4
28 15 2
28 16 1
28 17 1
28 18 3
28 19 2
28 20 5
28 21 5
28 22 4
28 23 5
28 24 3
28 25 3
28 26 1
28 27 2
29 0 4
29 1 4
29 2 3
29 3 4
29 4 5
29 5 1
29 6 3
29 7 2
29 8 1
29 9 2
29 10 3
29 11 3
29 12 4
29 13 2
29 14 3
29 15 5
29 16 1
29 17 2
29 18 1
29 19 5
29 20 4
29 21 3
29 22 2
29 23 4
29 24 3
29 25 2
29 26 3
29 27 4
29 28 3
30 0 5
30 1 3
30 2 4
30 3 2
30 4 4
30 5 4
30 6 1
30 7 2
30 8 5
30 9 2
30 10 2
30 11 3
30 12 2
30 13 4
30 14 2
30 15 1
30 16 1
30 17 4
30 18 4
30 19 3
30 20 2
30 21 3
30 22 1
30 23 2
30 24 5
30 25 3
30 26 3
30 27 3
30 28 4
30 29 2
31 0 2
31 1 2
31 2 2
31 3 1
31 4 1
31 5 5
31 6 4
31 7 4
31 8 2
31 9 4
31 10 2
31 11 5
31 12 1
31 13 1
31 14 3
31 15 1
31 16 1
31 17 3
31 18 2
31 19 3
31 20 3
31 21 2
31 22 5
31 23 4
31 24 1
31 25 5
31 26 2
31 27 1
31 28 4
31 29 1
31 30 1
32 0 2
32 1 3
32 2 3
32 3 1
32 4 4
32 5 4
32 6 5
32 7 2
32 8 1
32 9 3
32 10 2
32 11 2
32 12 5
32 13 2
32 14 4
32 15 2
32 16 3
32 17 2
32 18 4
32 19 2
32 20 5
32 21 1
32 22 4
32 23 3
32 24 4
32 25 3
32 26 2
32 27 2
32 28 2
32 29 4
32 30 2
32 31 4
33 0 4
33 1 3
33 2 1
33 3 5
33 4 4
33 5 1
33 6 2
33 7 5
33 8 1
33 9 1
33 10 4
33 11 5
33 12 3
33 13 3
33 14 2
33 15 1
33 16 3
33 17 1
33 18 4
33 19 5
33 20 4
33 21 4
33 22 5
33 23 1
33 24 5
33 25 2
33 26 2
33 27 3
33 28 1
33 29 3
33 30 1
33 31 3
33 32 4
34 0 2
34 1 3
34 2 4
34 3 5
34 4 5
34 5 1
34 6 2
34 7 4
34 8 5
34 9 5
34 10 4
34 11 3
34 12 2
34 13 2
34 14 3
34 15 1
34 16 4
34 17 2
34 18 4
34 19 3
34 20 1
34 21 2
34 22 5
34 23 5
34 24 5
34 25 2
34 26 4
34 27 1
34 28 4
34 29 1
34 30 3
34 31 4
34 32 4
34 33 1
